3385.65
0 66 1 3 9 7 8 13 5 4 2 6 0
0 15 19 14 11 10 12 17 18 16 105 22 0
0 25 145 24 116 23 190 28 21 20 29 27 26 30 0
0 36 37 59 34 35 38 31 39 32 49 41 33 0
0 48 47 154 45 46 52 50 40 44 43 42 53 0
0 55 56 57 51 60 58 54 64 62 61 0
0 68 67 74 63 73 72 75 71 69 78 70 123 65 0
0 80 77 85 84 83 79 88 82 89 92 76 81 87 86 0
0 106 135 97 100 102 99 98 103 94 93 101 91 90 96 95 0
0 111 108 109 110 118 107 117 159 104 115 113 114 112 0
0 130 129 119 134 132 128 124 122 121 120 125 127 126 191 0
0 149 133 146 144 136 143 137 142 141 140 138 155 171 139 0
0 147 148 162 150 168 151 160 158 156 157 153 152 0
0 172 173 166 167 177 170 164 165 131 163 161 169 0
0 180 178 176 179 175 174 184 183 182 181 187 188 0
0 196 199 197 186 192 185 198 195 193 194 189 0
0 0
